s SATISFIABLE
a H1	1
a H2	2
a H3	2
a H4	2
a H5	2
a H6	2
a H7	1
a H8	2
a H9	2
a H10	1
a A1	90
a A2	20
a A3	14
a A4	30
a A5	40
a A6	6
a A7	80
a A8	10
a A9	40
a A10	70
a S1	0
a S2	0
a S3	0
a S4	1
a S5	0
a S6	0
a S7	1
a S8	1
a S9	1
a S10	1
a R1	0
a R2	1
a R3	1
a R4	1
a R5	0
a R6	1
a R7	1
a R8	0
a R9	0
a R10	0
a G1	2
a G2	1
a G3	0
a G4	1
a G5	1
a G6	0
a G7	2
a G8	0
a G9	1
a G10	2
a children-in-house1	0
a children-in-house2	3
a
